
Gurobi 9.5.1 (linux64) logging started Fri Apr  8 21:29:04 2022

Set parameter LogFile to value "logs/CRVRP_5-4-11-100_0_0.LOG"
Set parameter Seed to value 1359728147
Set parameter Threads to value 2
Set parameter TimeLimit to value 60
Set parameter Symmetry to value 2
Set parameter Cuts to value 2
Set parameter PreDepRow to value 1
Set parameter ScaleFlag to value 1
Set parameter NormAdjust to value 0
Gurobi Optimizer version 9.5.1 build v9.5.1rc2 (linux64)
Thread count: 4 physical cores, 8 logical processors, using up to 2 threads
Optimize a model with 1007 rows, 810 columns and 4018 nonzeros
Model fingerprint: 0xa4f2fae5
Variable types: 32 continuous, 778 integer (522 binary)
Coefficient statistics:
  Matrix range     [1e+00, 1e+06]
  Objective range  [1e+00, 1e+00]
  Bounds range     [1e+00, 1e+04]
  RHS range        [1e+00, 1e+06]
Presolve removed 621 rows and 515 columns
Presolve time: 0.02s
Presolved: 386 rows, 295 columns, 2052 nonzeros
Variable types: 15 continuous, 280 integer (230 binary)
Found heuristic solution: objective 991.6285686

Root relaxation: objective 3.105877e+02, 209 iterations, 0.00 seconds (0.00 work units)

    Nodes    |    Current Node    |     Objective Bounds      |     Work
 Expl Unexpl |  Obj  Depth IntInf | Incumbent    BestBd   Gap | It/Node Time

     0     0  310.58770    0   26  991.62857  310.58770  68.7%     -    0s
H    0     0                     530.5563031  310.58770  41.5%     -    0s
H    0     0                     524.6586461  310.58770  40.8%     -    0s
     0     0  310.58770    0   36  524.65865  310.58770  40.8%     -    0s
H    0     0                     523.4025325  310.58770  40.7%     -    0s
     0     0  310.79310    0   40  523.40253  310.79310  40.6%     -    0s
     0     0  325.09108    0   37  523.40253  325.09108  37.9%     -    0s
H    0     0                     371.7810152  325.09108  12.6%     -    0s
     0     0  338.59252    0   15  371.78102  338.59252  8.93%     -    0s
     0     0  338.59252    0   28  371.78102  338.59252  8.93%     -    0s
     0     0  364.33159    0   37  371.78102  364.33159  2.00%     -    0s
     0     0  364.33159    0   37  371.78102  364.33159  2.00%     -    0s
     0     0  364.33159    0   28  371.78102  364.33159  2.00%     -    0s
     0     0  364.33159    0   30  371.78102  364.33159  2.00%     -    0s
     0     0  364.33159    0   10  371.78102  364.33159  2.00%     -    0s
     0     0  364.33159    0   20  371.78102  364.33159  2.00%     -    0s
     0     0  364.33159    0   25  371.78102  364.33159  2.00%     -    0s
     0     0  364.33159    0   27  371.78102  364.33159  2.00%     -    0s
     0     0  364.33159    0   12  371.78102  364.33159  2.00%     -    0s
     0     0  364.33159    0   12  371.78102  364.33159  2.00%     -    0s
H    0     0                     369.0625085  364.33159  1.28%     -    0s
     0     0  364.51290    0   22  369.06251  364.51290  1.23%     -    0s
     0     0  366.69705    0   26  369.06251  366.69705  0.64%     -    0s
     0     0  367.13035    0   21  369.06251  367.13035  0.52%     -    0s
     0     0  368.71678    0   22  369.06251  368.71678  0.09%     -    0s

Cutting planes:
  Gomory: 6
  Cover: 5
  Projected implied bound: 1
  MIR: 1
  Flow cover: 2
  GUB cover: 1
  RLT: 2
  Relax-and-lift: 1

Explored 1 nodes (2255 simplex iterations) in 0.31 seconds (0.16 work units)
Thread count was 2 (of 8 available processors)

Solution count 6: 369.063 371.781 523.403 ... 991.629

Optimal solution found (tolerance 1.00e-04)
Best objective 3.690625084856e+02, best bound 3.690625084856e+02, gap 0.0000%
Discarded solution information
